src/asp/benchmarks/medium5.lp
citta(perugia).
citta(spoleto).
citta(san_giustino).
citta(gubbio).
citta(amelia).
citta(assisi).
citta(marsciano).
citta(gualdo_tardino).
citta(foligno).
citta(orvieto).

richiesta(perugia, strade, 93).
richiesta(perugia, fiumi, 874).
richiesta(perugia, scuole, 229).
richiesta(perugia, parchi, 251).
richiesta(perugia, energia, 40).

richiesta(spoleto, strade, 5).
richiesta(spoleto, fiumi, 271).
richiesta(spoleto, scuole, 140).
richiesta(spoleto, parchi, 201).
richiesta(spoleto, energia, 52).

richiesta(san_giustino, strade, 82).
richiesta(san_giustino, fiumi, 15).
richiesta(san_giustino, scuole, 302).
richiesta(san_giustino, parchi, 107).
richiesta(san_giustino, energia, 99).

richiesta(gubbio, strade, 84).
richiesta(gubbio, fiumi, 592).
richiesta(gubbio, scuole, 478).
richiesta(gubbio, parchi, 185).
richiesta(gubbio, energia, 201).

richiesta(amelia, strade, 243).
richiesta(amelia, fiumi, 94).
richiesta(amelia, scuole, 199).
richiesta(amelia, parchi, 378).
richiesta(amelia, energia, 60).

richiesta(assisi, strade, 32).
richiesta(assisi, fiumi, 175).
richiesta(assisi, scuole, 8).
richiesta(assisi, parchi, 54).
richiesta(assisi, energia, 159).

richiesta(marsciano, strade, 192).
richiesta(marsciano, fiumi, 207).
richiesta(marsciano, scuole, 132).
richiesta(marsciano, parchi, 97).
richiesta(marsciano, energia, 404).

richiesta(gualdo_tardino, strade, 167).
richiesta(gualdo_tardino, fiumi, 175).
richiesta(gualdo_tardino, scuole, 0).
richiesta(gualdo_tardino, parchi, 41).
richiesta(gualdo_tardino, energia, 73).

richiesta(foligno, strade, 609).
richiesta(foligno, fiumi, 70).
richiesta(foligno, scuole, 558).
richiesta(foligno, parchi, 375).
richiesta(foligno, energia, 92).

richiesta(orvieto, strade, 63).
richiesta(orvieto, fiumi, 44).
richiesta(orvieto, scuole, 50).
richiesta(orvieto, parchi, 70).
richiesta(orvieto, energia, 852).

