src/minizinc/benchmarks/medium5.dzn
COMUNI = {
	corciano,
	foligno,
	spoleto,
	terni,
	gubbio,
	assisi,
	castiglione_del_lago,
	narni,
	gualdo_tardino,
	san_giustino,
};

NUMERO_COMUNI = 10;

ABITANTI_PER_COMUNE = [21, 55, 36, 106, 30, 27, 15, 17, 14, 11];

STRADE_TRA_COMUNI = [|
	false, false, false, false, false, false, false, false, false, false |
	false, false, false, false, false, true, false, false, false, false |
	false, false, false, true, false, false, false, false, false, false |
	false, false, true, false, false, false, false, true, false, false |
	false, false, false, false, false, false, false, false, true, false |
	false, true, false, false, false, false, false, false, false, false |
	false, false, false, false, false, false, false, false, false, false |
	false, false, false, true, false, false, false, false, false, false |
	false, false, false, false, true, false, false, false, false, false |
	false, false, false, false, false, false, false, false, false, false |
|];

RICHIESTE = [|
	438, 9, 143, 151, 132 |
	134, 109, 378, 31, 258 |
	279, 456, 15, 148, 247 |
	374, 223, 13, 245, 92 |
	25, 54, 252, 236, 80 |
	186, 378, 19, 105, 625 |
	199, 779, 463, 172, 36 |
	34, 12, 331, 301, 89 |
	52, 237, 104, 51, 148 |
	382, 340, 126, 20, 263 |
|];
